50
1 0 62
2 0 75
2 1 5
3 0 29
3 1 78
4 0 54
4 1 55
4 2 33
4 3 55
5 0 70
5 1 80
5 3 47
5 4 57
6 0 68
6 1 28
6 2 36
6 3 35
6 4 10
6 5 14
7 0 60
7 1 50
7 2 26
7 3 71
7 4 27
7 6 80
8 0 41
8 1 17
8 2 49
8 3 46
8 4 67
8 6 75
9 0 65
9 1 22
9 2 63
9 3 8
9 4 14
9 5 14
9 6 57
9 7 60
9 8 5
10 0 40
10 2 31
10 3 47
10 4 5
10 5 62
10 6 66
10 7 67
10 8 54
10 9 34
11 0 4
11 1 38
11 2 74
11 5 60
11 6 19
11 7 17
11 8 64
11 9 17
12 1 35
12 2 5
12 3 5
12 4 50
12 6 46
12 7 38
12 8 25
12 9 60
12 10 63
12 11 75
13 0 30
13 1 11
13 4 57
13 5 17
13 6 64
13 7 19
13 8 65
13 9 70
13 10 39
13 11 74
13 12 56
14 0 30
14 1 50
14 2 62
14 3 49
14 4 47
14 5 8
14 6 16
14 7 40
14 8 11
14 9 60
14 10 57
14 11 70
14 13 17
15 0 11
15 4 44
15 6 62
15 7 76
15 8 74
15 10 69
15 12 73
15 13 15
15 14 20
16 0 63
16 1 5
16 2 37
16 5 52
16 6 61
16 7 38
16 8 66
16 9 39
16 10 40
16 11 10
16 12 56
16 13 41
16 14 56
16 15 1
17 0 28
17 3 2
17 5 12
17 6 59
17 7 75
17 8 63
17 10 37
17 11 33
17 13 49
17 14 30
17 15 54
17 16 38
18 0 77
18 1 62
18 3 79
18 4 14
18 5 53
18 6 53
18 7 2
18 8 12
18 9 71
18 10 34
18 12 14
18 13 7
18 14 71
18 15 11
18 16 30
18 17 9
19 0 6
19 1 3
19 2 40
19 4 72
19 5 27
19 6 10
19 9 5
19 10 69
19 11 46
19 12 59
19 13 22
19 14 39
19 15 41
19 16 39
19 17 44
19 18 64
20 0 54
20 1 75
20 2 67
20 3 39
20 4 27
20 5 13
20 6 28
20 7 34
20 8 9
20 9 17
20 10 30
20 11 56
20 13 51
20 14 29
20 16 60
20 17 12
20 19 10
21 0 32
21 1 32
21 2 69
21 3 73
21 5 40
21 6 34
21 7 4
21 9 72
21 11 5
21 13 23
21 14 41
21 17 54
21 20 6
22 0 49
22 1 37
22 2 68
22 3 46
22 4 38
22 6 54
22 7 66
22 8 39
22 9 54
22 10 50
22 12 16
22 13 78
22 14 29
22 15 48
22 16 71
22 17 8
22 18 51
22 19 8
22 21 55
23 0 36
23 1 15
23 2 78
23 3 42
23 5 13
23 6 7
23 7 72
23 8 8
23 10 66
23 11 31
23 14 26
23 15 35
23 16 67
23 17 8
23 18 24
23 19 16
23 20 46
23 21 3
23 22 5
24 0 15
24 1 30
24 2 55
24 3 12
24 4 49
24 5 66
24 6 64
24 7 21
24 10 48
24 11 69
24 12 6
24 13 5
24 14 47
24 15 65
24 16 18
24 17 27
24 18 26
24 19 30
24 20 52
24 21 80
24 22 50
24 23 21
25 2 75
25 4 65
25 5 4
25 6 40
25 7 23
25 8 74
25 11 79
25 12 44
25 14 47
25 16 15
25 17 67
25 18 37
25 20 53
25 21 72
25 22 12
25 24 19
26 0 47
26 1 12
26 2 24
26 3 31
26 4 1
26 5 30
26 6 61
26 7 55
26 8 68
26 9 72
26 11 29
26 12 51
26 13 67
26 15 33
26 16 36
26 17 76
26 18 62
26 19 31
26 21 71
26 22 3
26 23 6
26 24 32
27 0 57
27 1 17
27 2 73
27 4 1
27 6 65
27 7 46
27 8 2
27 9 1
27 11 50
27 12 75
27 13 12
27 14 78
27 15 46
27 16 55
27 18 54
27 19 74
27 20 7
27 21 1
27 22 22
27 24 61
27 25 7
27 26 9
28 0 80
28 1 78
28 2 58
28 3 29
28 4 75
28 6 57
28 8 65
28 9 65
28 10 18
28 11 29
28 12 26
28 13 51
28 14 39
28 15 9
28 16 35
28 17 37
28 18 19
28 20 28
28 21 46
28 22 77
28 23 76
28 24 2
28 25 40
28 26 64
28 27 40
29 0 71
29 1 66
29 2 66
29 3 8
29 4 33
29 5 46
29 6 16
29 7 57
29 8 58
29 11 45
29 13 65
29 14 59
29 15 25
29 19 43
29 21 39
29 23 16
29 24 75
29 25 36
29 26 28
29 27 20
29 28 20
30 0 40
30 1 3
30 2 76
30 6 75
30 7 8
30 8 2
30 9 9
30 10 42
30 11 19
30 12 26
30 14 53
30 15 61
30 16 17
30 17 63
30 18 65
30 20 21
30 21 37
30 23 64
30 24 47
30 26 70
30 27 26
30 29 34
31 0 23
31 2 62
31 3 12
31 4 31
31 5 78
31 6 24
31 7 63
31 8 70
31 9 35
31 10 14
31 11 13
31 12 64
31 13 16
31 14 55
31 16 23
31 17 72
31 18 27
31 19 42
31 20 67
31 21 70
31 22 27
31 23 33
31 24 39
31 25 73
31 26 75
31 27 77
31 28 6
31 29 75
32 0 36
32 1 68
32 2 38
32 4 77
32 5 26
32 6 14
32 7 55
32 8 26
32 9 7
32 10 49
32 11 67
32 12 2
32 13 49
32 14 30
32 15 33
32 17 51
32 19 58
32 20 64
32 21 45
32 22 34
32 23 14
32 25 32
32 26 47
32 27 77
32 28 1
32 29 20
32 30 60
33 0 8
33 1 38
33 2 21
33 3 10
33 6 40
33 8 56
33 9 18
33 11 55
33 12 61
33 13 50
33 14 21
33 15 2
33 16 53
33 17 23
33 18 24
33 19 54
33 20 14
33 21 37
33 22 25
33 24 69
33 26 76
33 27 48
33 28 19
33 29 44
33 30 45
33 31 46
33 32 22
34 0 76
34 1 4
34 2 31
34 3 72
34 4 33
34 5 57
34 6 42
34 7 21
34 8 22
34 9 35
34 10 7
34 12 45
34 13 10
34 14 23
34 15 7
34 16 12
34 17 30
34 18 45
34 19 46
34 21 55
34 22 56
34 23 70
34 24 70
34 25 32
34 26 79
34 27 37
34 28 67
34 30 48
34 31 66
34 32 31
34 33 15
35 1 41
35 5 40
35 6 62
35 7 74
35 10 68
35 11 10
35 12 21
35 13 13
35 15 6
35 19 79
35 20 62
35 21 54
35 22 52
35 23 28
35 24 60
35 25 63
35 26 75
35 27 67
35 29 59
35 30 43
35 32 29
35 33 52
35 34 28
36 0 5
36 1 67
36 3 9
36 4 52
36 5 62
36 6 25
36 7 68
36 10 77
36 12 5
36 13 73
36 14 65
36 15 19
36 16 45
36 17 27
36 19 36
36 20 55
36 21 40
36 22 16
36 24 50
36 25 78
36 26 38
36 27 50
36 28 15
36 29 48
36 30 24
36 31 30
36 33 75
36 34 36
36 35 40
37 0 35
37 2 39
37 5 14
37 6 73
37 7 39
37 8 74
37 10 47
37 11 67
37 12 56
37 13 49
37 14 46
37 15 54
37 16 45
37 17 26
37 18 59
37 19 14
37 20 69
37 21 25
37 22 51
37 23 15
37 24 51
37 25 79
37 30 74
37 31 47
37 33 6
37 34 44
37 35 53
37 36 37
38 3 45
38 4 71
38 5 38
38 6 26
38 7 45
38 9 32
38 11 63
38 12 46
38 13 56
38 15 77
38 16 67
38 17 44
38 18 8
38 20 65
38 21 14
38 22 17
38 24 18
38 25 76
38 26 49
38 27 25
38 28 69
38 29 49
38 30 11
38 31 12
38 33 55
38 34 7
38 35 53
38 36 52
38 37 25
39 0 64
39 1 71
39 2 45
39 3 15
39 4 47
39 7 21
39 8 39
39 9 18
39 10 51
39 13 24
39 14 36
39 15 19
39 16 9
39 17 41
39 20 5
39 21 18
39 23 55
39 25 60
39 27 49
39 28 53
39 29 49
39 31 42
39 33 62
39 34 24
39 35 27
39 36 19
39 37 18
39 38 59
40 0 35
40 2 55
40 3 20
40 5 59
40 6 27
40 7 14
40 9 50
40 10 6
40 11 35
40 12 55
40 13 30
40 14 8
40 15 74
40 17 23
40 18 44
40 19 72
40 20 73
40 21 31
40 22 11
40 24 26
40 25 7
40 26 50
40 27 10
40 28 65
40 29 17
40 30 39
40 31 43
40 32 53
40 34 54
40 35 10
40 36 72
40 37 53
40 38 33
40 39 5
41 0 65
41 1 4
41 2 4
41 3 13
41 4 3
41 6 24
41 7 80
41 8 55
41 10 56
41 11 23
41 12 17
41 13 40
41 14 27
41 16 54
41 17 4
41 19 27
41 20 69
41 21 22
41 22 27
41 24 74
41 25 38
41 26 22
41 28 30
41 29 15
41 31 9
41 32 62
41 33 64
41 34 8
41 36 17
41 37 28
41 38 30
41 39 68
41 40 4
42 0 2
42 1 47
42 2 27
42 3 77
42 4 30
42 5 57
42 6 34
42 7 76
42 8 36
42 9 45
42 10 61
42 11 38
42 15 76
42 16 22
42 17 40
42 18 69
42 20 1
42 21 67
42 23 28
42 24 61
42 25 30
42 27 56
42 28 52
42 29 27
42 31 42
42 33 59
42 34 28
42 35 4
42 36 49
42 38 12
42 39 3
42 41 34
43 0 61
43 1 22
43 2 31
43 3 51
43 4 34
43 5 77
43 6 28
43 7 8
43 8 40
43 9 4
43 10 51
43 11 52
43 12 78
43 13 69
43 14 55
43 15 64
43 16 42
43 17 49
43 19 44
43 20 24
43 21 49
43 23 51
43 24 3
43 25 55
43 26 63
43 27 76
43 28 26
43 29 4
43 30 51
43 31 61
43 32 56
43 33 45
43 34 54
43 36 33
43 37 43
43 39 59
43 40 70
43 41 24
43 42 23
44 0 26
44 1 28
44 2 41
44 3 26
44 4 48
44 5 65
44 7 65
44 8 56
44 10 12
44 11 7
44 12 66
44 13 57
44 16 57
44 17 10
44 18 38
44 19 31
44 20 59
44 21 39
44 22 1
44 24 78
44 25 50
44 26 62
44 27 71
44 29 31
44 31 14
44 32 45
44 33 34
44 34 48
44 35 39
44 36 46
44 37 30
44 39 75
44 41 45
44 42 14
45 0 56
45 1 69
45 3 51
45 4 2
45 5 58
45 6 63
45 7 28
45 8 47
45 9 52
45 10 4
45 11 21
45 12 41
45 13 51
45 14 49
45 15 50
45 16 49
45 17 40
45 18 50
45 19 16
45 20 72
45 21 61
45 22 77
45 25 55
45 26 69
45 27 15
45 30 33
45 31 26
45 35 63
45 36 30
45 37 36
45 38 78
45 39 79
45 40 33
45 41 70
45 42 8
45 43 18
45 44 16
46 0 72
46 1 2
46 4 70
46 5 11
46 6 62
46 8 29
46 9 15
46 10 27
46 11 5
46 12 65
46 13 58
46 14 43
46 15 41
46 16 50
46 17 44
46 18 3
46 20 76
46 21 4
46 22 64
46 23 28
46 25 32
46 26 51
46 27 34
46 28 18
46 29 36
46 30 23
46 31 44
46 32 18
46 33 54
46 34 59
46 35 2
46 36 11
46 37 68
46 38 5
46 39 30
46 41 28
46 42 38
46 45 16
47 0 77
47 1 55
47 2 36
47 3 63
47 4 19
47 5 21
47 6 5
47 7 27
47 8 16
47 9 41
47 10 78
47 12 38
47 13 4
47 14 31
47 15 43
47 16 37
47 17 10
47 18 65
47 19 18
47 20 48
47 21 45
47 22 15
47 23 62
47 24 29
47 25 13
47 27 73
47 28 60
47 31 66
47 33 63
47 34 73
47 35 21
47 37 17
47 41 22
47 43 59
47 44 4
48 0 38
48 1 21
48 3 62
48 4 11
48 5 46
48 6 56
48 7 12
48 8 18
48 9 14
48 10 47
48 12 21
48 13 40
48 14 65
48 15 63
48 17 77
48 18 24
48 19 7
48 20 53
48 21 48
48 22 56
48 23 30
48 24 37
48 25 45
48 26 55
48 28 31
48 29 15
48 30 12
48 31 49
48 33 4
48 34 47
48 35 71
48 37 23
48 38 4
48 40 14
48 41 1
48 43 38
48 44 50
48 46 5
48 47 28
49 0 27
49 2 48
49 3 33
49 4 77
49 5 38
49 6 10
49 7 78
49 9 65
49 10 49
49 11 35
49 12 7
49 14 5
49 15 37
49 16 25
49 17 77
49 18 78
49 19 48
49 20 53
49 21 20
49 22 33
49 24 31
49 25 21
49 26 45
49 27 2
49 30 67
49 31 16
49 32 23
49 34 41
49 36 5
49 38 7
49 39 49
49 40 45
49 41 9
49 42 62
49 43 67
49 46 26
49 47 33
